cvc5/6268.txt
; cardinality of var1696 is 1
; rep: (as @var1696_0 var1696)
; cardinality of void is 1
; rep: (as @void_0 void)
; cardinality of Iterator is 1
; rep: (as @Iterator_0 Iterator)
; cardinality of ClassObject is 1
; rep: (as @ClassObject_0 ClassObject)
(define-fun null-String () String "A")
(define-fun var674 () String "")
(define-fun var2606 () String "")
(define-fun var1173 () String "")